41
raw_data/mm-rcpsp/MMLIB50/J509_1.mm
Time limit set to 60 seconds
Running CP solver
/home/omastto1/General-Optimization-Solver/src/solvers/mmrcpsp.py:42(stream:276:6): Warning: Cumulative expression 'pulse': height is zero, expression is zero everywhere.
                                                                                               VarCumulAtom_419 = pulse(task_0_mode_0, 0)
/home/omastto1/General-Optimization-Solver/src/solvers/mmrcpsp.py:42(stream:276:3908): Warning: Cumulative expression 'pulse': height is zero, expression is zero everywhere.
                                                                                                  VarCumulAtom_570 = pulse(task_51_mode_0, 0)
/home/omastto1/General-Optimization-Solver/src/solvers/mmrcpsp.py:42(stream:277:6): Warning: Cumulative expression 'pulse': height is zero, expression is zero everywhere.
                                                                                               VarCumulAtom_574 = pulse(task_0_mode_0, 0)
/home/omastto1/General-Optimization-Solver/src/solvers/mmrcpsp.py:42(stream:277:3906): Warning: Cumulative expression 'pulse': height is zero, expression is zero everywhere.
                                                                                                  VarCumulAtom_725 = pulse(task_51_mode_0, 0)
 ! --------------------------------------------------- CP Optimizer 20.1.0.0 --
 ! Minimization problem - 205 variables, 248 constraints
 ! TimeLimit            = 60
 ! Workers              = 14
 ! LogVerbosity         = Terse
 ! Initial process time : 0.00s (0.00s extraction + 0.00s propagation)
 !  . Log search space  : 523.0 (before), 523.0 (after)
 !  . Memory usage      : 1.3 MB (before), 1.3 MB (after)
 ! Using parallel search with 14 workers.
 ! ----------------------------------------------------------------------------
 !          Best Branches  Non-fixed    W       Branch decision
                        0        205                 -
 + New bound is 19
 ! Using iterative diving.
 ! Using temporal relaxation.
 *            65      123  0.82s        1      (gap is 70.77%)
 *            64      324  0.82s        1      (gap is 70.31%)
 *            63      858  0.82s        1      (gap is 69.84%)
 *            44     1125  0.82s        1      (gap is 56.82%)
 *            39     1328  0.82s        1      (gap is 51.28%)
 *            38     1576  0.82s        3      (gap is 50.00%)
 *            37     3168  1.55s        1      (gap is 48.65%)
 *            36     6902  2.28s        5      (gap is 47.22%)
 *            35    16753  5.18s        5      (gap is 45.71%)
 *            34    22774  5.88s        6      (gap is 44.12%)
 ! Using failure-directed search.
              34    35920          8    1   F    22 >= cost
 + New bound is 20 (gap is 41.18%)
 *            33     221k  17.00s      14      (gap is 39.39%)
 ! ----------------------------------------------------------------------------
 ! Search terminated by limit, 11 solutions found.
 ! Best objective         : 33 (gap is 39.39%)
 ! Best bound             : 20
 ! ----------------------------------------------------------------------------
 ! Number of branches     : 5457609
 ! Number of fails        : 1038260
 ! Total memory usage     : 19.8 MB (19.6 MB CP Optimizer + 0.2 MB Concert)
 ! Time spent in solve    : 60.03s (60.03s engine + 0.00s extraction)
 ! Search speed (br. / s) : 90929.8
 ! ----------------------------------------------------------------------------
task_0: (start=0, end=0, size=0, length=0)
Task 0 is scheduled in mode 0 from 0 to 0
task_1: (start=2, end=6, size=4, length=4)
Task 1 is scheduled in mode 0 from 2 to 6
task_2: (start=1, end=4, size=3, length=3)
Task 2 is scheduled in mode 0 from 1 to 4
task_3: (start=5, end=6, size=1, length=1)
Task 3 is scheduled in mode 0 from 5 to 6
task_4: (start=1, end=2, size=1, length=1)
Task 4 is scheduled in mode 0 from 1 to 2
task_5: (start=5, end=8, size=3, length=3)
Task 5 is scheduled in mode 0 from 5 to 8
task_6: (start=0, end=1, size=1, length=1)
Task 6 is scheduled in mode 0 from 0 to 1
task_7: (start=8, end=10, size=2, length=2)
Task 7 is scheduled in mode 0 from 8 to 10
task_8: (start=1, end=2, size=1, length=1)
Task 8 is scheduled in mode 0 from 1 to 2
task_9: (start=2, end=4, size=2, length=2)
Task 9 is scheduled in mode 0 from 2 to 4
task_10: (start=6, end=11, size=5, length=5)
Task 10 is scheduled in mode 1 from 6 to 11
task_11: (start=0, end=1, size=1, length=1)
Task 11 is scheduled in mode 0 from 0 to 1
task_12: (start=4, end=9, size=5, length=5)
Task 12 is scheduled in mode 0 from 4 to 9
task_13: (start=13, end=17, size=4, length=4)
Task 13 is scheduled in mode 0 from 13 to 17
task_14: (start=6, end=9, size=3, length=3)
Task 14 is scheduled in mode 0 from 6 to 9
task_15: (start=2, end=3, size=1, length=1)
Task 15 is scheduled in mode 0 from 2 to 3
task_16: (start=0, end=1, size=1, length=1)
Task 16 is scheduled in mode 0 from 0 to 1
task_17: (start=4, end=5, size=1, length=1)
Task 17 is scheduled in mode 0 from 4 to 5
task_18: (start=1, end=9, size=8, length=8)
Task 18 is scheduled in mode 2 from 1 to 9
task_19: (start=0, end=3, size=3, length=3)
Task 19 is scheduled in mode 0 from 0 to 3
task_20: (start=3, end=5, size=2, length=2)
Task 20 is scheduled in mode 0 from 3 to 5
task_21: (start=21, end=24, size=3, length=3)
Task 21 is scheduled in mode 0 from 21 to 24
task_22: (start=10, end=13, size=3, length=3)
Task 22 is scheduled in mode 0 from 10 to 13
task_23: (start=9, end=13, size=4, length=4)
Task 23 is scheduled in mode 0 from 9 to 13
task_24: (start=0, end=1, size=1, length=1)
Task 24 is scheduled in mode 1 from 0 to 1
task_25: (start=18, end=21, size=3, length=3)
Task 25 is scheduled in mode 0 from 18 to 21
task_26: (start=14, end=18, size=4, length=4)
Task 26 is scheduled in mode 0 from 14 to 18
task_27: (start=9, end=16, size=7, length=7)
Task 27 is scheduled in mode 2 from 9 to 16
task_28: (start=6, end=9, size=3, length=3)
Task 28 is scheduled in mode 1 from 6 to 9
task_29: (start=1, end=9, size=8, length=8)
Task 29 is scheduled in mode 2 from 1 to 9
task_30: (start=20, end=24, size=4, length=4)
Task 30 is scheduled in mode 0 from 20 to 24
task_31: (start=17, end=18, size=1, length=1)
Task 31 is scheduled in mode 0 from 17 to 18
task_32: (start=9, end=10, size=1, length=1)
Task 32 is scheduled in mode 0 from 9 to 10
task_33: (start=16, end=17, size=1, length=1)
Task 33 is scheduled in mode 0 from 16 to 17
task_34: (start=17, end=20, size=3, length=3)
Task 34 is scheduled in mode 0 from 17 to 20
task_35: (start=29, end=33, size=4, length=4)
Task 35 is scheduled in mode 2 from 29 to 33
task_36: (start=24, end=29, size=5, length=5)
Task 36 is scheduled in mode 0 from 24 to 29
task_37: (start=24, end=33, size=9, length=9)
Task 37 is scheduled in mode 2 from 24 to 33
task_38: (start=26, end=32, size=6, length=6)
Task 38 is scheduled in mode 2 from 26 to 32
task_39: (start=24, end=33, size=9, length=9)
Task 39 is scheduled in mode 2 from 24 to 33
task_40: (start=25, end=29, size=4, length=4)
Task 40 is scheduled in mode 0 from 25 to 29
task_41: (start=18, end=26, size=8, length=8)
Task 41 is scheduled in mode 2 from 18 to 26
task_42: (start=31, end=33, size=2, length=2)
Task 42 is scheduled in mode 0 from 31 to 33
task_43: (start=18, end=25, size=7, length=7)
Task 43 is scheduled in mode 2 from 18 to 25
task_44: (start=18, end=20, size=2, length=2)
Task 44 is scheduled in mode 1 from 18 to 20
task_45: (start=11, end=16, size=5, length=5)
Task 45 is scheduled in mode 0 from 11 to 16
task_46: (start=9, end=14, size=5, length=5)
Task 46 is scheduled in mode 1 from 9 to 14
task_47: (start=29, end=31, size=2, length=2)
Task 47 is scheduled in mode 0 from 29 to 31
task_48: (start=10, end=18, size=8, length=8)
Task 48 is scheduled in mode 2 from 10 to 18
task_49: (start=17, end=18, size=1, length=1)
Task 49 is scheduled in mode 0 from 17 to 18
task_50: (start=32, end=33, size=1, length=1)
Task 50 is scheduled in mode 0 from 32 to 33
task_51: (start=33, end=33, size=0, length=0)
Task 51 is scheduled in mode 0 from 33 to 33
Feasible solution found
Objective value: 33
Solution is 73.7 % worse than the lower bound.
